40
1 0 1
2 0 1
2 1 1
3 0 1
3 1 2
3 2 1
4 0 1
4 1 3
4 2 3
4 3 3
5 0 1
5 1 3
5 2 3
5 3 2
5 4 3
6 0 1
6 1 2
6 2 1
6 3 3
6 4 1
6 5 2
7 0 3
7 1 3
7 2 3
7 3 1
7 4 3
7 5 3
7 6 3
8 0 1
8 1 1
8 2 2
8 3 1
8 4 1
8 5 3
8 6 3
8 7 3
9 0 2
9 1 3
9 2 3
9 3 1
9 4 1
9 5 2
9 6 1
9 7 1
9 8 1
10 0 1
10 1 2
10 2 1
10 3 2
10 4 1
10 5 3
10 6 3
10 7 3
10 8 3
10 9 3
11 0 2
11 1 1
11 2 2
11 3 2
11 4 3
11 5 3
11 6 2
11 7 3
11 8 1
11 9 1
11 10 1
12 0 3
12 1 3
12 2 2
12 3 3
12 4 1
12 5 3
12 6 3
12 7 1
12 8 1
12 9 2
12 10 3
12 11 1
13 0 2
13 1 3
13 2 2
13 3 1
13 4 2
13 5 1
13 6 3
13 7 1
13 8 3
13 9 2
13 10 1
13 11 3
13 12 3
14 0 2
14 1 1
14 2 1
14 3 3
14 4 2
14 5 2
14 6 3
14 7 2
14 8 2
14 9 2
14 10 2
14 11 2
14 12 2
14 13 2
15 0 3
15 1 3
15 2 3
15 3 2
15 4 3
15 5 3
15 6 3
15 7 3
15 8 1
15 9 2
15 10 3
15 11 1
15 12 2
15 13 3
15 14 1
16 0 2
16 1 1
16 2 2
16 3 2
16 4 2
16 5 2
16 6 2
16 7 3
16 8 1
16 9 1
16 10 2
16 11 1
16 12 1
16 13 1
16 14 2
16 15 3
17 0 3
17 1 3
17 2 3
17 3 1
17 4 1
17 5 2
17 6 3
17 7 2
17 8 3
17 9 1
17 10 1
17 11 2
17 12 3
17 13 3
17 14 2
17 15 2
17 16 1
18 0 3
18 1 3
18 2 3
18 3 3
18 4 3
18 5 2
18 6 3
18 7 3
18 8 2
18 9 2
18 10 2
18 11 1
18 12 2
18 13 1
18 14 2
18 15 2
18 16 2
18 17 1
19 0 2
19 1 3
19 2 1
19 3 3
19 4 1
19 5 2
19 6 1
19 7 3
19 8 3
19 9 3
19 10 2
19 11 3
19 12 2
19 13 1
19 14 2
19 15 1
19 16 2
19 17 1
19 18 1
20 0 3
20 1 2
20 2 1
20 3 3
20 4 2
20 5 2
20 6 3
20 7 2
20 8 2
20 9 1
20 10 3
20 11 2
20 12 3
20 13 1
20 14 3
20 15 3
20 16 2
20 17 3
20 18 3
20 19 3
21 0 2
21 1 1
21 2 3
21 3 1
21 4 3
21 5 1
21 6 3
21 7 2
21 8 1
21 9 3
21 10 3
21 11 3
21 12 1
21 13 2
21 14 1
21 15 1
21 16 1
21 17 3
21 18 2
21 19 2
21 20 2
22 0 3
22 1 1
22 2 2
22 3 1
22 4 3
22 5 2
22 6 2
22 7 3
22 8 2
22 9 3
22 10 3
22 11 3
22 12 2
22 13 3
22 14 3
22 15 1
22 16 1
22 17 2
22 18 1
22 19 3
22 20 2
22 21 3
23 0 2
23 1 3
23 2 2
23 3 2
23 4 3
23 5 2
23 6 2
23 7 1
23 8 3
23 9 3
23 10 2
23 11 2
23 12 1
23 13 2
23 14 3
23 15 1
23 16 2
23 17 2
23 18 2
23 19 1
23 20 3
23 21 3
23 22 3
24 0 2
24 1 2
24 2 2
24 3 3
24 4 1
24 5 2
24 6 2
24 7 3
24 8 3
24 9 3
24 10 3
24 11 3
24 12 2
24 13 3
24 14 2
24 15 1
24 16 2
24 17 1
24 18 1
24 19 3
24 20 1
24 21 2
24 22 3
24 23 1
25 0 1
25 1 2
25 2 1
25 3 2
25 4 2
25 5 3
25 6 1
25 7 2
25 8 1
25 9 3
25 10 1
25 11 3
25 12 2
25 13 2
25 14 3
25 15 1
25 16 2
25 17 3
25 18 1
25 19 2
25 20 2
25 21 1
25 22 1
25 23 1
25 24 2
26 0 1
26 1 3
26 2 3
26 3 1
26 4 1
26 5 2
26 6 1
26 7 1
26 8 2
26 9 3
26 10 1
26 11 3
26 12 2
26 13 2
26 14 2
26 15 1
26 16 1
26 17 3
26 18 1
26 19 3
26 20 3
26 21 3
26 22 1
26 23 3
26 24 2
26 25 1
27 0 1
27 1 1
27 2 2
27 3 3
27 4 3
27 5 1
27 6 2
27 7 2
27 8 3
27 9 2
27 10 1
27 11 2
27 12 3
27 13 1
27 14 3
27 15 3
27 16 3
27 17 1
27 18 2
27 19 3
27 20 2
27 21 2
27 22 3
27 23 3
27 24 1
27 25 1
27 26 1
28 0 2
28 1 1
28 2 1
28 3 1
28 4 2
28 5 3
28 6 3
28 7 2
28 8 2
28 9 2
28 10 2
28 11 3
28 12 1
28 13 2
28 14 2
28 15 2
28 16 1
28 17 1
28 18 2
28 19 2
28 20 3
28 21 2
28 22 3
28 23 3
28 24 3
28 25 3
28 26 1
28 27 2
29 0 2
29 1 3
29 2 3
29 3 3
29 4 3
29 5 3
29 6 3
29 7 1
29 8 2
29 9 3
29 10 1
29 11 3
29 12 2
29 13 3
29 14 1
29 15 3
29 16 3
29 17 1
29 18 2
29 19 2
29 20 1
29 21 1
29 22 2
29 23 1
29 24 1
29 25 3
29 26 2
29 27 1
29 28 2
30 0 2
30 1 1
30 2 2
30 3 2
30 4 2
30 5 3
30 6 2
30 7 2
30 8 3
30 9 2
30 10 2
30 11 1
30 12 2
30 13 2
30 14 1
30 15 2
30 16 1
30 17 3
30 18 3
30 19 1
30 20 1
30 21 1
30 22 1
30 23 3
30 24 3
30 25 2
30 26 3
30 27 2
30 28 2
30 29 1
31 0 3
31 1 1
31 2 3
31 3 1
31 4 2
31 5 1
31 6 2
31 7 1
31 8 2
31 9 2
31 10 3
31 11 3
31 12 1
31 13 3
31 14 2
31 15 3
31 16 3
31 17 2
31 18 1
31 19 3
31 20 3
31 21 2
31 22 1
31 23 3
31 24 2
31 25 1
31 26 2
31 27 2
31 28 3
31 29 2
31 30 1
32 0 2
32 1 3
32 2 2
32 3 3
32 4 1
32 5 3
32 6 3
32 7 3
32 8 3
32 9 1
32 10 2
32 11 2
32 12 1
32 13 1
32 14 2
32 15 2
32 16 2
32 17 2
32 18 3
32 19 1
32 20 2
32 21 3
32 22 3
32 23 1
32 24 2
32 25 2
32 26 1
32 27 1
32 28 1
32 29 2
32 30 3
32 31 2
33 0 3
33 1 3
33 2 2
33 3 2
33 4 1
33 5 1
33 6 3
33 7 1
33 8 3
33 9 1
33 10 2
33 11 2
33 12 1
33 13 1
33 14 1
33 15 3
33 16 3
33 17 3
33 18 2
33 19 1
33 20 3
33 21 1
33 22 3
33 23 3
33 24 1
33 25 3
33 26 1
33 27 2
33 28 3
33 29 1
33 30 2
33 31 1
33 32 2
34 0 1
34 1 3
34 2 2
34 3 2
34 4 2
34 5 1
34 6 2
34 7 1
34 8 2
34 9 1
34 10 2
34 11 2
34 12 1
34 13 2
34 14 3
34 15 1
34 16 3
34 17 3
34 18 1
34 19 1
34 20 3
34 21 2
34 22 3
34 23 2
34 24 2
34 25 3
34 26 1
34 27 3
34 28 2
34 29 2
34 30 2
34 31 3
34 32 3
34 33 3
35 0 1
35 1 2
35 2 2
35 3 3
35 4 3
35 5 2
35 6 2
35 7 3
35 8 1
35 9 3
35 10 2
35 11 1
35 12 1
35 13 2
35 14 3
35 15 3
35 16 3
35 17 1
35 18 2
35 19 2
35 20 1
35 21 2
35 22 1
35 23 2
35 24 3
35 25 3
35 26 3
35 27 3
35 28 2
35 29 3
35 30 3
35 31 2
35 32 1
35 33 1
35 34 1
36 0 1
36 1 3
36 2 1
36 3 3
36 4 2
36 5 1
36 6 2
36 7 2
36 8 2
36 9 3
36 10 3
36 11 1
36 12 1
36 13 2
36 14 1
36 15 2
36 16 3
36 17 2
36 18 3
36 19 3
36 20 3
36 21 3
36 22 2
36 23 1
36 24 1
36 25 3
36 26 3
36 27 2
36 28 3
36 29 2
36 30 2
36 31 3
36 32 3
36 33 3
36 34 3
36 35 3
37 0 2
37 1 3
37 2 3
37 3 3
37 4 3
37 5 1
37 6 3
37 7 1
37 8 3
37 9 1
37 10 2
37 11 2
37 12 2
37 13 1
37 14 1
37 15 2
37 16 3
37 17 1
37 18 1
37 19 2
37 20 3
37 21 1
37 22 1
37 23 1
37 24 1
37 25 3
37 26 2
37 27 2
37 28 3
37 29 3
37 30 1
37 31 3
37 32 1
37 33 2
37 34 1
37 35 1
37 36 1
38 0 2
38 1 2
38 2 1
38 3 2
38 4 3
38 5 3
38 6 3
38 7 2
38 8 2
38 9 1
38 10 2
38 11 3
38 12 2
38 13 3
38 14 1
38 15 2
38 16 1
38 17 2
38 18 1
38 19 1
38 20 3
38 21 2
38 22 3
38 23 1
38 24 1
38 25 1
38 26 1
38 27 3
38 28 3
38 29 2
38 30 2
38 31 3
38 32 2
38 33 2
38 34 3
38 35 1
38 36 2
38 37 1
39 0 1
39 1 2
39 2 1
39 3 3
39 4 3
39 5 1
39 6 1
39 7 3
39 8 1
39 9 3
39 10 1
39 11 2
39 12 2
39 13 1
39 14 1
39 15 1
39 16 2
39 17 1
39 18 1
39 19 2
39 20 1
39 21 3
39 22 1
39 23 2
39 24 1
39 25 1
39 26 3
39 27 2
39 28 2
39 29 1
39 30 3
39 31 1
39 32 1
39 33 1
39 34 3
39 35 3
39 36 3
39 37 3
39 38 3
